solution status: time limit reached
objective value:                               2011.9
C0018                                               1 	(obj:2.9)
C0057                                               1 	(obj:2.9)
C0090                                               1 	(obj:2.9)
C0151                                               1 	(obj:2.9)
C0173                                               1 	(obj:11.6)
C0192                                               1 	(obj:11.6)
C0209                                               1 	(obj:11.6)
C0456                                               1 	(obj:11.6)
C0622                                               1 	(obj:5.2)
C0699                                               1 	(obj:5.2)
C0765                                               1 	(obj:5.2)
C0802                                               1 	(obj:5.2)
C1005                                               1 	(obj:2)
C1042                                               1 	(obj:14.4)
C1077                                               1 	(obj:5.2)
C1114                                               1 	(obj:14.4)
C1189                                               1 	(obj:14.4)
C1340                                               1 	(obj:14.4)
C1491                                               1 	(obj:7.8)
C1784                                               1 	(obj:7)
C1843                                               1 	(obj:6.2)
C1865                                               1 	(obj:6.2)
C1886                                               1 	(obj:7)
C1897                                               1 	(obj:7)
C2050                                               1 	(obj:2.2)
C2057                                               1 	(obj:2.2)
C2067                                               1 	(obj:2.2)
C2132                                               1 	(obj:2.2)
C2174                                               1 	(obj:7.9)
C2404                                               1 	(obj:7.9)
C2621                                               1 	(obj:7.9)
C2853                                               1 	(obj:7.9)
C3062                                               1 	(obj:7.9)
C3291                                               1 	(obj:7.9)
C3486                                               1 	(obj:5.8)
C3707                                               1 	(obj:5.8)
C4017                                               1 	(obj:2.7)
C4240                                               1 	(obj:2.7)
C4405                                               1 	(obj:3)
C4647                                               1 	(obj:3)
C4870                                               1 	(obj:7.9)
C5091                                               1 	(obj:7.9)
C5314                                               1 	(obj:7.9)
C5601                                               1 	(obj:2.7)
C5817                                               1 	(obj:2.7)
C6054                                               1 	(obj:2.7)
C6277                                               1 	(obj:2.7)
C6503                                               1 	(obj:2.7)
C6712                                               1 	(obj:2.7)
C6944                                               1 	(obj:3.9)
C7156                                               1 	(obj:3.9)
C7394                                               1 	(obj:3.9)
C7607                                               1 	(obj:2.7)
C7843                                               1 	(obj:2.7)
C8068                                               1 	(obj:2.7)
C8296                                               1 	(obj:2.7)
C8778                                               1 	(obj:2.9)
C8831                                               1 	(obj:2.9)
C10020                                              1 	(obj:5.2)
C10067                                              1 	(obj:5.2)
C10131                                              1 	(obj:5.2)
C10181                                              1 	(obj:5.2)
C10246                                              1 	(obj:5.2)
C10294                                              1 	(obj:5.2)
C10583                                              1 	(obj:2)
C10622                                              1 	(obj:2)
C10690                                              1 	(obj:5.2)
C10733                                              1 	(obj:5.2)
C10805                                              1 	(obj:5.2)
C13592                                              1 	(obj:2.2)
C13652                                              1 	(obj:2.2)
C13991                                              1 	(obj:2.2)
C14058                                              1 	(obj:2.2)
C14104                                              1 	(obj:2.2)
C14161                                              1 	(obj:2.2)
C14224                                              1 	(obj:2.2)
C14285                                              1 	(obj:2.2)
C14344                                              1 	(obj:3.9)
C14377                                              1 	(obj:3.9)
C14455                                              1 	(obj:3.9)
C14505                                              1 	(obj:2.2)
C14566                                              1 	(obj:2.2)
C14620                                              1 	(obj:2.2)
C14675                                              1 	(obj:2.2)
C14744                                              1 	(obj:7.9)
C14801                                              1 	(obj:5.8)
C14895                                              1 	(obj:7.9)
C14955                                              1 	(obj:5.8)
C15050                                              1 	(obj:7.9)
C15108                                              1 	(obj:5.8)
C15180                                              1 	(obj:5.8)
C15263                                              1 	(obj:7.9)
C15330                                              1 	(obj:12)
C15410                                              1 	(obj:12)
C15507                                              1 	(obj:3)
C15556                                              1 	(obj:12)
C15654                                              1 	(obj:7.9)
C15717                                              1 	(obj:7.9)
C15809                                              1 	(obj:7.9)
C15879                                              1 	(obj:9)
C15966                                              1 	(obj:7)
C16032                                              1 	(obj:9)
C16109                                              1 	(obj:9)
C16192                                              1 	(obj:7)
C16273                                              1 	(obj:2.7)
C16352                                              1 	(obj:3.9)
C16395                                              1 	(obj:12)
C16503                                              1 	(obj:3.9)
C16573                                              1 	(obj:7)
C16654                                              1 	(obj:2.7)
C16728                                              1 	(obj:7)
C16803                                              1 	(obj:7)
C17143                                              1 	(obj:2.9)
C17152                                              1 	(obj:2.9)
C17192                                              1 	(obj:2.9)
C17249                                              1 	(obj:2.9)
C17279                                              1 	(obj:2.9)
C17391                                              1 	(obj:2.9)
C17472                                              1 	(obj:2.9)
C17562                                              1 	(obj:2.9)
C17605                                              1 	(obj:2.9)
C17611                                              1 	(obj:2.9)
C17664                                              1 	(obj:11.6)
C17720                                              1 	(obj:11.6)
C17723                                              1 	(obj:11.6)
C17825                                              1 	(obj:2.9)
C17853                                              1 	(obj:2.9)
C17935                                              1 	(obj:2.9)
C17965                                              1 	(obj:2.9)
C17997                                              1 	(obj:2.9)
C18033                                              1 	(obj:2.9)
C18074                                              1 	(obj:2.9)
C18106                                              1 	(obj:2.9)
C18171                                              1 	(obj:2.9)
C18192                                              1 	(obj:2.9)
C18279                                              1 	(obj:11.6)
C19096                                              1 	(obj:11.6)
C19160                                              1 	(obj:11.6)
C20719                                              1 	(obj:2.9)
C20750                                              1 	(obj:2.9)
C21768                                              1 	(obj:2)
C21848                                              1 	(obj:2)
C21974                                              1 	(obj:5.2)
C22134                                              1 	(obj:5.2)
C22667                                              1 	(obj:14.4)
C22870                                              1 	(obj:5.2)
C23704                                              1 	(obj:14.4)
C23792                                              1 	(obj:14.4)
C24233                                              1 	(obj:2)
C24300                                              1 	(obj:2)
C24393                                              1 	(obj:2)
C24456                                              1 	(obj:2)
C24519                                              1 	(obj:2)
C24613                                              1 	(obj:2)
C24695                                              1 	(obj:2)
C24742                                              1 	(obj:2)
C24830                                              1 	(obj:2)
C24894                                              1 	(obj:2)
C24977                                              1 	(obj:2)
C25061                                              1 	(obj:2)
C25129                                              1 	(obj:2)
C25215                                              1 	(obj:2)
C25404                                              1 	(obj:2)
C25485                                              1 	(obj:2)
C25586                                              1 	(obj:5.2)
C25654                                              1 	(obj:5.2)
C25726                                              1 	(obj:5.2)
C25793                                              1 	(obj:5.2)
C25872                                              1 	(obj:5.2)
C25931                                              1 	(obj:5.2)
C25995                                              1 	(obj:5.2)
C26080                                              1 	(obj:5.2)
C26155                                              1 	(obj:5.2)
C26238                                              1 	(obj:5.2)
C26321                                              1 	(obj:5.2)
C26455                                              1 	(obj:5.2)
C26519                                              1 	(obj:5.2)
C26620                                              1 	(obj:5.2)
C26692                                              1 	(obj:7.8)
C26865                                              1 	(obj:2)
C28473                                              1 	(obj:2)
C28553                                              1 	(obj:5.2)
C28644                                              1 	(obj:5.2)
C28756                                              1 	(obj:5.2)
C28820                                              1 	(obj:5.2)
C29444                                              1 	(obj:9)
C30240                                              1 	(obj:7)
C30337                                              1 	(obj:7)
C30361                                              1 	(obj:7)
C30385                                              1 	(obj:6.2)
C31102                                              1 	(obj:7)
C31252                                              1 	(obj:6.2)
C31289                                              1 	(obj:6.2)
C31318                                              1 	(obj:6.2)
C31351                                              1 	(obj:6.2)
C31394                                              1 	(obj:6.2)
C31410                                              1 	(obj:6.2)
C31443                                              1 	(obj:6.2)
C31464                                              1 	(obj:6.2)
C31479                                              1 	(obj:6.2)
C31516                                              1 	(obj:6.2)
C31528                                              1 	(obj:6.2)
C31726                                              1 	(obj:7)
C31747                                              1 	(obj:7)
C31815                                              1 	(obj:7)
C31833                                              1 	(obj:7)
C32491                                              1 	(obj:13.7)
C32574                                              1 	(obj:13.7)
C33107                                              1 	(obj:10.5)
C33220                                              1 	(obj:2.2)
C33252                                              1 	(obj:2.2)
C33266                                              1 	(obj:13.7)
C33293                                              1 	(obj:13.7)
C33314                                              1 	(obj:10.5)
C33349                                              1 	(obj:10.5)
C33375                                              1 	(obj:10.5)
C33430                                              1 	(obj:13.7)
C33495                                              1 	(obj:13.7)
C33721                                              1 	(obj:10.5)
C33748                                              1 	(obj:9.4)
C33794                                              1 	(obj:2.2)
C33813                                              1 	(obj:2.2)
C33894                                              1 	(obj:2.2)
C33911                                              1 	(obj:13.7)
C33943                                              1 	(obj:5.8)
C34064                                              1 	(obj:5.8)
C34216                                              1 	(obj:5.8)
C34385                                              1 	(obj:5.8)
C34527                                              1 	(obj:5.8)
C34692                                              1 	(obj:12)
C34848                                              1 	(obj:12)
C35013                                              1 	(obj:7.9)
C35126                                              1 	(obj:5.8)
C35318                                              1 	(obj:7.9)
C35438                                              1 	(obj:5.8)
C35632                                              1 	(obj:7.9)
C35749                                              1 	(obj:5.8)
C35867                                              1 	(obj:5.8)
C36032                                              1 	(obj:12)
C36200                                              1 	(obj:12)
C36315                                              1 	(obj:12)
C36541                                              1 	(obj:7.9)
C36679                                              1 	(obj:7.9)
C36819                                              1 	(obj:7.9)
C36934                                              1 	(obj:5.8)
C37125                                              1 	(obj:7.9)
C37229                                              1 	(obj:5.8)
C37373                                              1 	(obj:5.8)
C37521                                              1 	(obj:5.8)
C37674                                              1 	(obj:5.8)
C37818                                              1 	(obj:5.8)
C37995                                              1 	(obj:5.8)
C38128                                              1 	(obj:5.8)
C38378                                              1 	(obj:7)
C38439                                              1 	(obj:12)
C38642                                              1 	(obj:9)
C38806                                              1 	(obj:9)
C38995                                              1 	(obj:2.7)
C39125                                              1 	(obj:7)
C39279                                              1 	(obj:7)
C39433                                              1 	(obj:9.5)
C39606                                              1 	(obj:3.9)
C39703                                              1 	(obj:3)
C39846                                              1 	(obj:3)
C40015                                              1 	(obj:3)
C40154                                              1 	(obj:3)
C40293                                              1 	(obj:3)
C40463                                              1 	(obj:3)
C40621                                              1 	(obj:3)
C40744                                              1 	(obj:3)
C40908                                              1 	(obj:3)
C41048                                              1 	(obj:3)
C41207                                              1 	(obj:3)
C41367                                              1 	(obj:3)
C41511                                              1 	(obj:3)
C41673                                              1 	(obj:3)
C41758                                              1 	(obj:3)
C41934                                              1 	(obj:3)
C42090                                              1 	(obj:3)
C42247                                              1 	(obj:3)
C42424                                              1 	(obj:7.9)
C42568                                              1 	(obj:7.9)
C42716                                              1 	(obj:7.9)
C42859                                              1 	(obj:7.9)
C43014                                              1 	(obj:7.9)
C43149                                              1 	(obj:7.9)
C43289                                              1 	(obj:7.9)
C43450                                              1 	(obj:7.9)
C43601                                              1 	(obj:7.9)
C43760                                              1 	(obj:7.9)
C43919                                              1 	(obj:7.9)
C44099                                              1 	(obj:14.2)
C44205                                              1 	(obj:7.9)
C44345                                              1 	(obj:7.9)
C44522                                              1 	(obj:7.9)
C44670                                              1 	(obj:9)
C44830                                              1 	(obj:7)
C45004                                              1 	(obj:2.7)
C45033                                              1 	(obj:5.8)
C45300                                              1 	(obj:2.7)
C45446                                              1 	(obj:2.7)
C45605                                              1 	(obj:2.7)
C45758                                              1 	(obj:3.9)
C45890                                              1 	(obj:9.5)
C46057                                              1 	(obj:3.9)
C46187                                              1 	(obj:9.5)
C46347                                              1 	(obj:3.9)
C46476                                              1 	(obj:9.5)
C46639                                              1 	(obj:9.5)
C46798                                              1 	(obj:13.8)
C46942                                              1 	(obj:9.5)
C47088                                              1 	(obj:9.5)
C47259                                              1 	(obj:13.8)
C47381                                              1 	(obj:9.5)
C47532                                              1 	(obj:9.5)
C47677                                              1 	(obj:9.5)
C47844                                              1 	(obj:9.5)
C47986                                              1 	(obj:9.5)
C48085                                              1 	(obj:3)
C48228                                              1 	(obj:3)
C48313                                              1 	(obj:5.8)
C48469                                              1 	(obj:5.8)
C48636                                              1 	(obj:5.8)
C48862                                              1 	(obj:7.9)
C49002                                              1 	(obj:7.9)
C49201                                              1 	(obj:14.2)
C49360                                              1 	(obj:2.7)
C49484                                              1 	(obj:7)
C49635                                              1 	(obj:7)
C49802                                              1 	(obj:2.7)
C49953                                              1 	(obj:2.7)
C50093                                              1 	(obj:7)
C50241                                              1 	(obj:7)
C50272                                              1 	(obj:12)
C50562                                              1 	(obj:2.7)
C50711                                              1 	(obj:3.9)
C50935                                      +infinity 	(obj:0)
C50934                                      +infinity 	(obj:0)
C50933                                      +infinity 	(obj:0)
C50932                                      +infinity 	(obj:0)
C50931                                      +infinity 	(obj:0)
C50930                                      +infinity 	(obj:0)
C50929                                      +infinity 	(obj:0)
C50928                                      +infinity 	(obj:0)
C50927                                      +infinity 	(obj:0)
C50926                                      +infinity 	(obj:0)
C50925                                      +infinity 	(obj:0)
C50924                                      +infinity 	(obj:0)
C50923                                      +infinity 	(obj:0)
C50922                                      +infinity 	(obj:0)
C50921                                      +infinity 	(obj:0)
C50920                                      +infinity 	(obj:0)
C50919                                      +infinity 	(obj:0)
C50918                                      +infinity 	(obj:0)
C50917                                      +infinity 	(obj:0)
C50916                                      +infinity 	(obj:0)
C50915                                      +infinity 	(obj:0)
C50914                                      +infinity 	(obj:0)
C50913                                      +infinity 	(obj:0)
C50912                                      +infinity 	(obj:0)
C50911                                      +infinity 	(obj:0)
C50910                                      +infinity 	(obj:0)
C50909                                      +infinity 	(obj:0)
C50908                                      +infinity 	(obj:0)
C50907                                      +infinity 	(obj:0)
C50906                                      +infinity 	(obj:0)
C50905                                      +infinity 	(obj:0)
C50904                                      +infinity 	(obj:0)
C50903                                      +infinity 	(obj:0)
C50902                                      +infinity 	(obj:0)
C50901                                      +infinity 	(obj:0)
C50900                                      +infinity 	(obj:0)
C50899                                      +infinity 	(obj:0)
C50898                                      +infinity 	(obj:0)
C50897                                      +infinity 	(obj:0)
C50896                                      +infinity 	(obj:0)
C50895                                      +infinity 	(obj:0)
C50894                                      +infinity 	(obj:0)
C50893                                      +infinity 	(obj:0)
C50892                                      +infinity 	(obj:0)
C50891                                      +infinity 	(obj:0)
C50890                                      +infinity 	(obj:0)
C50889                                      +infinity 	(obj:0)
C50888                                      +infinity 	(obj:0)
C50887                                      +infinity 	(obj:0)
C50886                                      +infinity 	(obj:0)
C50885                                      +infinity 	(obj:0)
C50884                                      +infinity 	(obj:0)
C50883                                      +infinity 	(obj:0)
C50882                                      +infinity 	(obj:0)
C50881                                      +infinity 	(obj:0)
C50880                                      +infinity 	(obj:0)
C50879                                      +infinity 	(obj:0)
C50878                                      +infinity 	(obj:0)
C50877                                      +infinity 	(obj:0)
C50876                                      +infinity 	(obj:0)
C50875                                      +infinity 	(obj:0)
C50874                                      +infinity 	(obj:0)
C50873                                      +infinity 	(obj:0)
C50872                                      +infinity 	(obj:0)
C50871                                      +infinity 	(obj:0)
C50870                                      +infinity 	(obj:0)
C50869                                      +infinity 	(obj:0)
C50868                                      +infinity 	(obj:0)
C50867                                      +infinity 	(obj:0)
C50866                                      +infinity 	(obj:0)
C50865                                      +infinity 	(obj:0)
C50864                                      +infinity 	(obj:0)
C50863                                      +infinity 	(obj:0)
C50862                                      +infinity 	(obj:0)
C50861                                      +infinity 	(obj:0)
C50860                                      +infinity 	(obj:0)
C50859                                      +infinity 	(obj:0)
C50858                                      +infinity 	(obj:0)
C50857                                      +infinity 	(obj:0)
C50856                                      +infinity 	(obj:0)
C50855                                      +infinity 	(obj:0)
C50854                                      +infinity 	(obj:0)
C50853                                      +infinity 	(obj:0)
C50852                                      +infinity 	(obj:0)
C50851                                      +infinity 	(obj:0)
C50850                                      +infinity 	(obj:0)
C50849                                      +infinity 	(obj:0)
C50848                                      +infinity 	(obj:0)
C50847                                      +infinity 	(obj:0)
C50846                                      +infinity 	(obj:0)
C50845                                      +infinity 	(obj:0)
C50844                                      +infinity 	(obj:0)
C50843                                      +infinity 	(obj:0)
C50842                                      +infinity 	(obj:0)
C50841                                      +infinity 	(obj:0)
C50840                                      +infinity 	(obj:0)
C50839                                      +infinity 	(obj:0)
C50838                                      +infinity 	(obj:0)
C50837                                      +infinity 	(obj:0)
C50836                                      +infinity 	(obj:0)
C50835                                      +infinity 	(obj:0)
C50834                                      +infinity 	(obj:0)
C50833                                      +infinity 	(obj:0)
C50832                                      +infinity 	(obj:0)
C50831                                      +infinity 	(obj:0)
C50830                                      +infinity 	(obj:0)
C50829                                      +infinity 	(obj:0)
C50828                                      +infinity 	(obj:0)
C50827                                      +infinity 	(obj:0)
C50826                                      +infinity 	(obj:0)
C50825                                      +infinity 	(obj:0)
C50824                                            984 	(obj:0)
C50823                                            582 	(obj:0)
C50822                                            997 	(obj:0)
C50821                                            573 	(obj:0)
C50820                                           1014 	(obj:0)
C50819                                            627 	(obj:0)
C50818                                            954 	(obj:0)
C50817                                            622 	(obj:0)
C50816                                            616 	(obj:0)
C50815                                            222 	(obj:0)
C50814                                            222 	(obj:0)
C50813                                            414 	(obj:0)
C50812                                            222 	(obj:0)
C50811                                            222 	(obj:0)
C50810                                            602 	(obj:0)
C50809                                            624 	(obj:0)
C50808                                            602 	(obj:0)
C50807                                            604 	(obj:0)
C50806                                            222 	(obj:0)
C50805                                            222 	(obj:0)
C50804                                            604 	(obj:0)
C50803                                            385 	(obj:0)
C50802                                            222 	(obj:0)
C50801                                            657 	(obj:0)
C50800                                            657 	(obj:0)
C50799                                            222 	(obj:0)
C50798                                            222 	(obj:0)
C50797                                            222 	(obj:0)
C50796                                            209 	(obj:0)
C50795                                            209 	(obj:0)
C50794                                            209 	(obj:0)
C50793                                            209 	(obj:0)
C50792                                            209 	(obj:0)
C50791                                            209 	(obj:0)
C50790                                            209 	(obj:0)
C50789                                            209 	(obj:0)
C50788                                            209 	(obj:0)
C50787                                            209 	(obj:0)
C50786                                            209 	(obj:0)
C50785                                            209 	(obj:0)
C50784                                            209 	(obj:0)
C50783                                            209 	(obj:0)
C50782                                            209 	(obj:0)
C50781                                            209 	(obj:0)
C50780                                            209 	(obj:0)
C50779                                            209 	(obj:0)
C50778                                            209 	(obj:0)
C50777                                            209 	(obj:0)
C50776                                            209 	(obj:0)
C50775                                            209 	(obj:0)
C50774                                            209 	(obj:0)
C50773                                            209 	(obj:0)
C50772                                            209 	(obj:0)
C50771                                            209 	(obj:0)
C50770                                            209 	(obj:0)
C50769                                            209 	(obj:0)
C50768                                            221 	(obj:0)
C50767                                            221 	(obj:0)
C50766                                            221 	(obj:0)
C50765                                            543 	(obj:0)
C50764                                            221 	(obj:0)
C50763                                            221 	(obj:0)
C50762                                            221 	(obj:0)
C50761                                            221 	(obj:0)
C50760                                            221 	(obj:0)
C50759                                            644 	(obj:0)
C50758                                            651 	(obj:0)
C50757                                            976 	(obj:0)
C50756                                            652 	(obj:0)
C50755                                            697 	(obj:0)
C50754                                            673 	(obj:0)
C50753                                           1532 	(obj:0)
C50752                                            221 	(obj:0)
C50751                                           1532 	(obj:0)
C50750                                            882 	(obj:0)
C50749                                            715 	(obj:0)
C50748                                            221 	(obj:0)
C50747                                            683 	(obj:0)
C50746                                            221 	(obj:0)
C50745                                            221 	(obj:0)
C50744                                            221 	(obj:0)
C50743                                           1532 	(obj:0)
C50742                                            633 	(obj:0)
C50741                                            953 	(obj:0)
C50740                                            227 	(obj:0)
C50739                                            227 	(obj:0)
C50738                                            227 	(obj:0)
C50737                                            227 	(obj:0)
C50736                                            227 	(obj:0)
C50735                                            227 	(obj:0)
C50734                                            227 	(obj:0)
C50733                                            227 	(obj:0)
C50732                                            227 	(obj:0)
C50731                                            227 	(obj:0)
C50730                                            227 	(obj:0)
C50729                                            227 	(obj:0)
C50728                                            227 	(obj:0)
C50727                                            227 	(obj:0)
C50726                                            227 	(obj:0)
C50725                                            227 	(obj:0)
C50724                                            227 	(obj:0)
C50723                                            227 	(obj:0)
C50722                                           1527 	(obj:0)
C50721                                           1527 	(obj:0)
C50720                                            227 	(obj:0)
C50719                                            227 	(obj:0)
C50718                                            941 	(obj:0)
C50717                                           1527 	(obj:0)
C50716                                           1527 	(obj:0)
C50715                                            884 	(obj:0)
C50714                                           1527 	(obj:0)
C50713                                            227 	(obj:0)
C50936                                      +infinity 	(obj:0)
C0001                                           13207 	(obj:0)
C0002                                           11452 	(obj:0)
C0003                                            6147 	(obj:0)
C0004                                            5415 	(obj:0)
C0005                                689.399999999999 	(obj:0)
C0006                                           613.2 	(obj:0)
C0007                                           395.7 	(obj:0)
C0008                                           313.6 	(obj:0)
